Problem:    knapsack_continous_300_3c_glpk
Rows:       2
Columns:    300
Non-zeros:  600
Status:     OPTIMAL
Objective:  z = 31502.10927 (MAXimum)

   No.   Row name   St   Activity     Lower bound   Upper bound    Marginal
------ ------------ -- ------------- ------------- ------------- -------------
     1 z            B        31502.1                             
     2 Weight       NU       10789.4                     10789.4      0.288317 

   No. Column name  St   Activity     Lower bound   Upper bound    Marginal
------ ------------ -- ------------- ------------- ------------- -------------
     1 x0           NL             0             0             1      -6.86068 
     2 x1           NU             1             0             1       248.416 
     3 x2           NU             1             0             1       250.969 
     4 x3           NU             1             0             1        90.159 
     5 x4           NU             1             0             1        173.38 
     6 x5           NU             1             0             1       203.793 
     7 x6           NU             1             0             1       135.959 
     8 x7           NU             1             0             1       199.598 
     9 x8           NU             1             0             1       56.6558 
    10 x9           NL             0             0             1      -16.1971 
    11 x10          NL             0             0             1      -58.3023 
    12 x11          NU             1             0             1       129.745 
    13 x12          NU             1             0             1       149.101 
    14 x13          NL             0             0             1      -18.8225 
    15 x14          NU             1             0             1       139.563 
    16 x15          NU             1             0             1       111.076 
    17 x16          NU             1             0             1       88.9367 
    18 x17          NU             1             0             1       164.766 
    19 x18          NL             0             0             1      -55.9663 
    20 x19          NU             1             0             1       239.752 
    21 x20          NU             1             0             1       103.102 
    22 x21          NU             1             0             1       120.029 
    23 x22          NL             0             0             1      -35.8205 
    24 x23          NU             1             0             1       145.266 
    25 x24          NU             1             0             1       27.3396 
    26 x25          NU             1             0             1       45.4577 
    27 x26          NU             1             0             1       190.863 
    28 x27          NL             0             0             1       -3.0578 
    29 x28          NU             1             0             1       194.262 
    30 x29          NU             1             0             1       115.431 
    31 x30          NU             1             0             1       250.355 
    32 x31          NL             0             0             1      -49.3811 
    33 x32          NU             1             0             1       160.046 
    34 x33          NU             1             0             1       208.939 
    35 x34          NU             1             0             1        283.54 
    36 x35          NU             1             0             1       42.4326 
    37 x36          NU             1             0             1       218.955 
    38 x37          NU             1             0             1       119.541 
    39 x38          NU             1             0             1       109.376 
    40 x39          NL             0             0             1      -2.82216 
    41 x40          NU             1             0             1       145.624 
    42 x41          NU             1             0             1       230.296 
    43 x42          NL             0             0             1      -18.4552 
    44 x43          NU             1             0             1       72.8632 
    45 x44          NU             1             0             1       95.5549 
    46 x45          NL             0             0             1      -42.0435 
    47 x46          NL             0             0             1       -12.076 
    48 x47          NU             1             0             1       79.8838 
    49 x48          NL             0             0             1      -41.0406 
    50 x49          NU             1             0             1       219.979 
    51 x50          NU             1             0             1       120.669 
    52 x51          NL             0             0             1      -106.282 
    53 x52          NL             0             0             1      -48.5763 
    54 x53          NL             0             0             1      -91.0798 
    55 x54          NU             1             0             1       139.028 
    56 x55          NU             1             0             1       15.0832 
    57 x56          NU             1             0             1       229.755 
    58 x57          NU             1             0             1       188.189 
    59 x58          NL             0             0             1      -13.9861 
    60 x59          NU             1             0             1       198.227 
    61 x60          NU             1             0             1       20.7569 
    62 x61          NU             1             0             1       218.085 
    63 x62          NU             1             0             1       76.4705 
    64 x63          NU             1             0             1       233.685 
    65 x64          NU             1             0             1       11.0153 
    66 x65          NU             1             0             1       221.653 
    67 x66          NL             0             0             1       -26.829 
    68 x67          NU             1             0             1        232.91 
    69 x68          NU             1             0             1       197.549 
    70 x69          NU             1             0             1       42.2484 
    71 x70          NU             1             0             1        89.409 
    72 x71          NU             1             0             1        97.566 
    73 x72          NU             1             0             1       34.4312 
    74 x73          NU             1             0             1       105.428 
    75 x74          NU             1             0             1       46.2963 
    76 x75          NU             1             0             1       105.984 
    77 x76          NU             1             0             1       226.337 
    78 x77          NU             1             0             1       69.7998 
    79 x78          NU             1             0             1       54.9031 
    80 x79          NU             1             0             1       218.262 
    81 x80          NU             1             0             1         162.7 
    82 x81          NU             1             0             1       162.733 
    83 x82          NU             1             0             1       9.23198 
    84 x83          NU             1             0             1       14.3768 
    85 x84          NU             1             0             1       79.6018 
    86 x85          NL             0             0             1      -39.3924 
    87 x86          NU             1             0             1       115.102 
    88 x87          NL             0             0             1      -67.3361 
    89 x88          NU             1             0             1       41.8441 
    90 x89          NL             0             0             1      -76.6914 
    91 x90          NU             1             0             1       12.0213 
    92 x91          NU             1             0             1       159.182 
    93 x92          NL             0             0             1      -29.0345 
    94 x93          NU             1             0             1       185.709 
    95 x94          NU             1             0             1      0.714323 
    96 x95          NU             1             0             1       187.523 
    97 x96          NL             0             0             1       -33.324 
    98 x97          NU             1             0             1       117.597 
    99 x98          NL             0             0             1      -10.9549 
   100 x99          NU             1             0             1       127.948 
   101 x100         NU             1             0             1       125.135 
   102 x101         NU             1             0             1       100.485 
   103 x102         NU             1             0             1       19.8691 
   104 x103         NU             1             0             1       190.356 
   105 x104         NU             1             0             1       258.346 
   106 x105         NU             1             0             1       4.43764 
   107 x106         NU             1             0             1       73.9453 
   108 x107         NU             1             0             1       166.187 
   109 x108         NU             1             0             1       135.184 
   110 x109         NU             1             0             1       127.162 
   111 x110         NU             1             0             1       157.033 
   112 x111         NU             1             0             1       198.816 
   113 x112         NL             0             0             1      -23.9112 
   114 x113         NU             1             0             1         276.8 
   115 x114         NL             0             0             1    -0.0803683 
   116 x115         NU             1             0             1       108.376 
   117 x116         NU             1             0             1       80.9874 
   118 x117         NU             1             0             1       130.637 
   119 x118         NU             1             0             1        219.21 
   120 x119         NL             0             0             1       -3.5921 
   121 x120         NU             1             0             1       219.432 
   122 x121         NU             1             0             1       222.181 
   123 x122         NL             0             0             1      -34.3978 
   124 x123         NU             1             0             1       98.4078 
   125 x124         NU             1             0             1       260.804 
   126 x125         NU             1             0             1       25.7192 
   127 x126         NU             1             0             1       79.8349 
   128 x127         NU             1             0             1      0.349576 
   129 x128         NU             1             0             1       84.2254 
   130 x129         NL             0             0             1      -54.6241 
   131 x130         NU             1             0             1       118.233 
   132 x131         NU             1             0             1       37.3952 
   133 x132         NU             1             0             1       127.626 
   134 x133         NU             1             0             1       184.071 
   135 x134         NU             1             0             1         86.16 
   136 x135         NU             1             0             1        24.683 
   137 x136         NU             1             0             1       18.0013 
   138 x137         NU             1             0             1       91.8437 
   139 x138         NU             1             0             1       15.9573 
   140 x139         NU             1             0             1       192.194 
   141 x140         NU             1             0             1       103.755 
   142 x141         NU             1             0             1       117.143 
   143 x142         NU             1             0             1       263.742 
   144 x143         NU             1             0             1       56.8327 
   145 x144         NU             1             0             1       32.8648 
   146 x145         NU             1             0             1       68.3954 
   147 x146         NL             0             0             1      -77.8204 
   148 x147         NU             1             0             1        113.74 
   149 x148         NU             1             0             1       9.38915 
   150 x149         NU             1             0             1        116.48 
   151 x150         NU             1             0             1       47.7758 
   152 x151         NL             0             0             1      -22.7453 
   153 x152         NU             1             0             1       89.4197 
   154 x153         NU             1             0             1       20.5486 
   155 x154         NU             1             0             1       65.5186 
   156 x155         NU             1             0             1       59.4159 
   157 x156         NL             0             0             1       -3.1992 
   158 x157         NU             1             0             1       43.8018 
   159 x158         NL             0             0             1      -48.5746 
   160 x159         NU             1             0             1       92.7962 
   161 x160         NL             0             0             1      -85.5902 
   162 x161         NU             1             0             1       157.878 
   163 x162         NU             1             0             1        17.092 
   164 x163         NU             1             0             1       17.3317 
   165 x164         NL             0             0             1       -50.466 
   166 x165         NU             1             0             1       144.144 
   167 x166         NU             1             0             1       206.572 
   168 x167         NU             1             0             1        139.08 
   169 x168         NL             0             0             1      -54.5503 
   170 x169         NU             1             0             1       186.385 
   171 x170         NU             1             0             1       213.321 
   172 x171         NU             1             0             1       136.806 
   173 x172         NU             1             0             1       139.579 
   174 x173         NU             1             0             1       37.5181 
   175 x174         NU             1             0             1       81.4693 
   176 x175         NU             1             0             1       232.744 
   177 x176         NU             1             0             1        103.76 
   178 x177         NU             1             0             1       112.607 
   179 x178         NU             1             0             1       236.033 
   180 x179         NU             1             0             1       69.6632 
   181 x180         NU             1             0             1       21.6371 
   182 x181         NU             1             0             1       34.1831 
   183 x182         NU             1             0             1       5.05866 
   184 x183         NU             1             0             1       92.2962 
   185 x184         NU             1             0             1       213.712 
   186 x185         NL             0             0             1      -68.4743 
   187 x186         NU             1             0             1       120.139 
   188 x187         NU             1             0             1       86.8915 
   189 x188         NU             1             0             1       221.445 
   190 x189         NU             1             0             1       113.418 
   191 x190         NU             1             0             1        173.26 
   192 x191         NU             1             0             1      0.715801 
   193 x192         NU             1             0             1       45.4079 
   194 x193         NU             1             0             1       153.576 
   195 x194         NL             0             0             1      -29.5581 
   196 x195         NU             1             0             1       158.182 
   197 x196         NL             0             0             1      -21.5268 
   198 x197         NU             1             0             1        86.735 
   199 x198         NL             0             0             1      -16.7409 
   200 x199         NU             1             0             1       154.934 
   201 x200         NU             1             0             1       153.195 
   202 x201         NU             1             0             1       35.2002 
   203 x202         NL             0             0             1      -77.7836 
   204 x203         NU             1             0             1        163.09 
   205 x204         NU             1             0             1       204.368 
   206 x205         NL             0             0             1      -1.64304 
   207 x206         NU             1             0             1       136.582 
   208 x207         NU             1             0             1       214.239 
   209 x208         NL             0             0             1      -44.4905 
   210 x209         NL             0             0             1      -40.1315 
   211 x210         NL             0             0             1      -54.0414 
   212 x211         B       0.052688             0             1 
   213 x212         NU             1             0             1       174.642 
   214 x213         NU             1             0             1       236.807 
   215 x214         NL             0             0             1      -42.9204 
   216 x215         NU             1             0             1       48.5879 
   217 x216         NU             1             0             1       158.608 
   218 x217         NU             1             0             1       73.3106 
   219 x218         NU             1             0             1       16.1662 
   220 x219         NU             1             0             1       169.826 
   221 x220         NU             1             0             1       110.143 
   222 x221         NU             1             0             1        102.81 
   223 x222         NU             1             0             1         145.1 
   224 x223         NL             0             0             1      -28.6376 
   225 x224         NU             1             0             1       153.246 
   226 x225         NU             1             0             1       201.564 
   227 x226         NL             0             0             1      -27.0516 
   228 x227         NU             1             0             1       165.511 
   229 x228         NU             1             0             1       14.8846 
   230 x229         NU             1             0             1       135.544 
   231 x230         NU             1             0             1       221.977 
   232 x231         NU             1             0             1       39.0363 
   233 x232         NU             1             0             1       164.019 
   234 x233         NU             1             0             1       61.7138 
   235 x234         NU             1             0             1       67.3839 
   236 x235         NU             1             0             1       199.811 
   237 x236         NL             0             0             1      -49.5225 
   238 x237         NU             1             0             1       0.95506 
   239 x238         NU             1             0             1       128.881 
   240 x239         NU             1             0             1       4.35622 
   241 x240         NL             0             0             1      -1.28607 
   242 x241         NU             1             0             1       36.4114 
   243 x242         NU             1             0             1       209.711 
   244 x243         NU             1             0             1       16.2443 
   245 x244         NU             1             0             1         200.4 
   246 x245         NU             1             0             1       158.285 
   247 x246         NU             1             0             1       45.1117 
   248 x247         NU             1             0             1       170.456 
   249 x248         NU             1             0             1       106.359 
   250 x249         NL             0             0             1      -42.1795 
   251 x250         NU             1             0             1       89.3159 
   252 x251         NL             0             0             1      -9.84569 
   253 x252         NL             0             0             1      -26.8103 
   254 x253         NL             0             0             1      -31.7916 
   255 x254         NL             0             0             1      -65.6947 
   256 x255         NU             1             0             1       39.0574 
   257 x256         NU             1             0             1       134.789 
   258 x257         NU             1             0             1       100.461 
   259 x258         NU             1             0             1       43.5339 
   260 x259         NU             1             0             1       139.469 
   261 x260         NU             1             0             1       146.952 
   262 x261         NU             1             0             1       24.2704 
   263 x262         NL             0             0             1      -19.1985 
   264 x263         NU             1             0             1       189.468 
   265 x264         NU             1             0             1        203.14 
   266 x265         NU             1             0             1       139.398 
   267 x266         NL             0             0             1      -77.6437 
   268 x267         NU             1             0             1       28.1478 
   269 x268         NL             0             0             1      -84.7403 
   270 x269         NL             0             0             1      -12.7765 
   271 x270         NU             1             0             1         151.3 
   272 x271         NU             1             0             1        104.52 
   273 x272         NU             1             0             1       55.7204 
   274 x273         NU             1             0             1       140.212 
   275 x274         NU             1             0             1       272.413 
   276 x275         NL             0             0             1      -1.82088 
   277 x276         NU             1             0             1       53.4739 
   278 x277         NU             1             0             1       174.208 
   279 x278         NU             1             0             1       82.5884 
   280 x279         NL             0             0             1      -37.6732 
   281 x280         NU             1             0             1       125.581 
   282 x281         NU             1             0             1       198.495 
   283 x282         NL             0             0             1      -27.1266 
   284 x283         NU             1             0             1        250.35 
   285 x284         NU             1             0             1       18.1098 
   286 x285         NU             1             0             1       153.524 
   287 x286         NU             1             0             1       101.186 
   288 x287         NU             1             0             1       176.536 
   289 x288         NL             0             0             1      -44.3808 
   290 x289         NU             1             0             1       134.026 
   291 x290         NU             1             0             1       77.9305 
   292 x291         NU             1             0             1       185.932 
   293 x292         NU             1             0             1       8.42051 
   294 x293         NU             1             0             1       196.463 
   295 x294         NU             1             0             1       12.5381 
   296 x295         NL             0             0             1      -32.2048 
   297 x296         NL             0             0             1      -20.1069 
   298 x297         NU             1             0             1       59.3221 
   299 x298         NU             1             0             1       117.257 
   300 x299         NU             1             0             1       12.3867 

Karush-Kuhn-Tucker optimality conditions:

KKT.PE: max.abs.err = 0.00e+00 on row 0
        max.rel.err = 0.00e+00 on row 0
        High quality

KKT.PB: max.abs.err = 0.00e+00 on row 0
        max.rel.err = 0.00e+00 on row 0
        High quality

KKT.DE: max.abs.err = 6.04e-14 on column 80
        max.rel.err = 2.78e-14 on column 214
        High quality

KKT.DB: max.abs.err = 0.00e+00 on row 0
        max.rel.err = 0.00e+00 on row 0
        High quality

End of output
